PROBLEM NAME : sample_medium_15cities
KNAPSACK DATA TYPE : uncorrelated
DIMENSION : 15
NUMBER OF ITEMS : 20
CAPACITY OF KNAPSACK : 200
MIN SPEED : 0.1
MAX SPEED : 1.0
RENTING RATIO : 0.6
EDGE_WEIGHT_TYPE : CEIL_2D
NODE_COORD_SECTION
1 50 50
2 20 80
3 80 90
4 90 30
5 10 10
6 60 70
7 30 20
8 70 40
9 40 60
10 85 75
11 15 45
12 55 15
13 25 90
14 75 55
15 45 30
ITEMS SECTION
1 120 30 2
2 80 15 2
3 150 40 3
4 60 12 4
5 90 22 5
6 40 8 6
7 70 18 7
8 110 28 8
9 55 14 9
10 130 35 10
11 45 10 11
12 85 20 12
13 100 25 13
14 35 7 14
15 65 16 15
16 95 24 3
17 50 13 6
18 75 19 8
19 25 6 11
20 140 38 4
